
Gurobi 11.0.1 (win64) logging started Tue May 14 18:27:20 2024

Set parameter LogFile to value "output/solver_log40.txt"
Gurobi Optimizer version 11.0.1 build v11.0.1rc0 (win64 - Windows 11.0 (22631.2))

CPU model: 11th Gen Intel(R) Core(TM) i7-1165G7 @ 2.80GHz, instruction set [SSE2|AVX|AVX2|AVX512]
Thread count: 4 physical cores, 8 logical processors, using up to 8 threads

Optimize a model with 1127 rows, 270 columns and 21411 nonzeros
Model fingerprint: 0xb78303cc
Variable types: 88 continuous, 182 integer (182 binary)
Coefficient statistics:
  Matrix range     [4e-01, 1e+05]
  Objective range  [1e+00, 1e+02]
  Bounds range     [1e+00, 1e+00]
  RHS range        [1e-02, 1e+05]

User MIP start produced solution with objective 38085.5 (0.00s)
User MIP start produced solution with objective 39420 (0.01s)
User MIP start produced solution with objective 39420 (0.01s)
Loaded user MIP start with objective 39420

Presolve removed 106 rows and 108 columns
Presolve time: 0.02s
Presolved: 1021 rows, 162 columns, 20491 nonzeros
Variable types: 81 continuous, 81 integer (80 binary)

Root relaxation: objective 4.158727e+04, 253 iterations, 0.02 seconds (0.04 work units)

    Nodes    |    Current Node    |     Objective Bounds      |     Work
 Expl Unexpl |  Obj  Depth IntInf | Incumbent    BestBd   Gap | It/Node Time

     0     0 41587.2713    0    5 39419.9536 41587.2713  5.50%     -    0s
     0     0 40456.5942    0    8 39419.9536 40456.5942  2.63%     -    0s
     0     0          -    0      39419.9536 39422.3086  0.01%     -    0s

Cutting planes:
  MIR: 1
  RLT: 1

Explored 1 nodes (779 simplex iterations) in 0.13 seconds (0.23 work units)
Thread count was 8 (of 8 available processors)

Solution count 3: 39420 39420 38085.5 

Optimal solution found (tolerance 1.00e-04)
Best objective 3.941995359035e+04, best bound 3.942230860987e+04, gap 0.0060%
